data/input/generated/pEFS/41.dat
set P := 1 2 3;

set I := 1 2 3 4 5 6 7 8 9 10 11;

param 
v [*,*] (tr)
:      1        2        3       :=
1    0.3603   0.7546   0.7543
2    0.2774   0.2879   0.02
3    0.8783   0.1597   0.3341
4    0.9387   0.5971   0.2158
5    0.6698   0.891    0.425
6    0.5468   0.2512   0.3956
7    0.2129   0.9631   0.5775
8    0.1276   0.9026   0.9558
9    0.9558   0.5673   0.5659
10   0.2354   0.726    0.88
11   0.342    0.0905   0.9841
;

